; benchmark generated from python API
(set-info :status unknown)
(declare-fun S_4 () Real)
(declare-fun S_5 () Real)
(declare-fun C () Real)
(declare-fun L0 () Real)
(declare-fun B () Real)
(declare-fun S_1 () Real)
(declare-fun S_0 () Real)
(declare-fun S_3 () Real)
(declare-fun S_2 () Real)
(declare-fun A_2 () Real)
(declare-fun A_3 () Real)
(declare-fun L_2 () Real)
(declare-fun A_4 () Real)
(declare-fun L_0 () Real)
(declare-fun L_1 () Real)
(declare-fun A_5 () Real)
(declare-fun A_1 () Real)
(declare-fun A_0 () Real)
(assert
 (let (($x42 (>= L0 0.0)))
 (let (($x643 (>= C 5.0)))
 (let (($x869 (>= B 5.0)))
 (let (($x14284 (<= (+ (* 2.0 C) S_2 (* (- 1.0) S_5)) 0.0)))
 (let ((?x288 (* (- 1.0) C)))
 (let ((?x600 (* (- 1.0) A_2)))
 (let ((?x303 (+ A_3 ?x600 ?x288)))
 (let (($x498 (<= ?x303 0.0)))
 (let (($x14205 (not $x498)))
 (let ((?x310 (* (- 1.0) L_2)))
 (let ((?x914 (+ A_3 ?x310)))
 (let (($x981 (>= S_4 ?x914)))
 (let ((?x1018 (+ A_4 ?x310)))
 (let (($x909 (>= S_5 ?x1018)))
 (let (($x954 (not (<= L_1 L_0))))
 (let (($x23556 (or $x909 $x954 (<= (+ (* 4.0 C) (* (- 1.0) S_5) S_0) 0.0))))
 (let (($x23884 (or $x909 $x954 (<= (+ (* 3.0 C) S_1 (* (- 1.0) S_5)) 0.0))))
 (let (($x13751 (<= (+ A_4 (* (- 1.0) A_3) B) C)))
 (let (($x14762 (<= S_5 (+ A_5 (* (- 1.0) A_3) A_2 (* (- 1.0) L_1) C B))))
 (let (($x14749 (<= S_5 (+ A_5 (* (- 1.0) A_3) A_1 (* (- 1.0) L_1) (* 2.0 C)))))
 (let ((?x570 (* (- 1.0) L_1)))
 (let ((?x596 (* (- 1.0) A_3)))
 (let ((?x14715 (+ A_4 ?x596 A_2 ?x570 C B)))
 (let (($x14533 (<= ?x303 B)))
 (let (($x552 (<= A_2 (+ A_1 (* (- 1.0) B) C))))
 (let (($x14295 (not $x552)))
 (let (($x14243 (not $x13751)))
 (let ((?x1480 (* 3.0 C)))
 (let ((?x645 (* (- 1.0) B)))
 (let ((?x12969 (+ A_1 ?x570 ?x645 ?x1480)))
 (let (($x14551 (>= S_5 ?x12969)))
 (let (($x24359 (or $x498 $x552 $x909 $x14551 (>= S_5 (+ A_4 ?x596 A_1 ?x570 (* 2.0 C))))))
 (let ((?x1247 (* 2.0 C)))
 (let ((?x13555 (+ A_1 ?x570 ?x645 ?x1247)))
 (let (($x13810 (>= S_4 ?x13555)))
 (let (($x3578 (>= S_4 (+ A_3 ?x570))))
 (let (($x1658 (not (= L_1 L_2))))
 (let (($x4533 (>= S_5 (+ A_4 ?x570))))
 (let (($x13939 (<= A_3 (+ A_2 ?x645 C))))
 (let ((?x564 (+ A_2 ?x310 ?x645 ?x1247)))
 (let (($x562 (>= S_5 ?x564)))
 (let (($x14339 (not $x13939)))
 (let (($x409 (<= A_4 (+ A_3 C))))
 (let (($x69 (= L_2 L_1)))
 (let (($x3299 (= L_2 L_0)))
 (let (($x1966 (not (= L_0 L_1))))
 (let (($x14042 (or $x1966 $x3299 (<= (+ A_1 (* (- 1.0) L_0) L_2 ?x600 C) 0.0))))
 (let (($x59 (= L_1 L_0)))
 (let (($x2611 (not (= L_0 L_2))))
 (let (($x41 (>= L_0 L0)))
 (let (($x131 (>= S_1 S_0)))
 (let (($x134 (>= S_2 S_1)))
 (let (($x137 (>= S_3 S_2)))
 (let (($x140 (>= S_4 S_3)))
 (let (($x145 (>= A_1 A_0)))
 (let (($x146 (>= A_2 A_1)))
 (let (($x147 (>= A_3 A_2)))
 (let (($x148 (>= A_4 A_3)))
 (let (($x149 (>= A_5 A_4)))
 (and (<= (+ A_1 ?x570) S_5) (not (<= (+ A_0 (* (- 1.0) L_0)) S_4)) $x149 $x148 $x147 $x146 $x145 $x140 $x137 $x134 $x131 $x41 (>= S_3 (+ A_2 ?x310 ?x645)) (>= S_2 (+ A_1 ?x570 ?x645)) (>= S_1 (+ ?x645 ?x570 A_1 ?x288)) (>= S_0 (+ ?x645 ?x570 A_1 (* (- 2.0) C))) (or $x59 $x69 (= (+ A_2 ?x310) (+ A_1 ?x570 C))) (or $x69 (<= S_2 (+ A_2 ?x310 ?x645))) (or $x59 (<= S_1 (+ A_1 ?x570 ?x645))) (or $x59 (<= S_0 (+ ?x645 ?x570 A_1 ?x288))) (or $x69 (<= S_3 (+ A_2 ?x310 ?x645 C))) (<= S_4 ?x1018) (or $x552 (>= S_3 (+ A_1 ?x570 ?x645 C))) (or $x498 $x552 $x13810) (or $x498 $x562 $x13751) (or $x59 (<= S_4 ?x12969)) (or $x69 (<= S_4 ?x564)) (<= (+ C (* (- 1.0) S_2) S_0) 0.0) (or $x954 (<= (+ ?x1247 (* (- 1.0) S_3) S_0) 0.0)) (or $x2611 (<= (+ ?x1480 (* (- 1.0) S_4) S_0) 0.0)) (or $x954 (<= (+ ?x1247 S_1 (* (- 1.0) S_4)) 0.0)) (or $x59 $x954) (or $x69 (not (<= L_2 L_1))) (or $x59 $x1658 (<= (+ A_2 (* (- 1.0) A_1) ?x288) 0.0)) (or $x69 (<= S_1 (+ ?x645 ?x310 A_2 ?x288))) (or $x69 (<= S_0 (+ ?x645 ?x310 A_2 (* (- 2.0) C)))) $x14042 (or $x59 (<= S_2 (+ A_1 ?x570 ?x645 C))) (>= S_2 (+ ?x645 ?x310 A_2 ?x288)) (>= S_1 (+ ?x645 ?x310 A_2 (* (- 2.0) C))) (>= S_0 (+ ?x645 ?x310 A_2 (* (- 3.0) C))) (or (>= S_4 (+ A_2 ?x310 ?x645 C)) $x13939) (or $x59 (<= S_3 ?x13555)) (or $x69 (<= S_5 (+ A_5 (* (- 1.0) A_4) A_2 ?x310 ?x1247))) (or $x498 (>= S_5 (+ A_4 ?x596 A_2 ?x310 C)) $x14243) (or $x69 (<= S_4 (+ A_4 ?x596 A_2 ?x310 C))) (or $x69 (<= S_5 (+ A_4 ?x596 A_2 ?x310 ?x1247))) (or $x69 (<= S_5 (+ A_5 ?x596 A_2 ?x310 C))) (or $x981 (<= (+ C S_2 (* (- 1.0) S_4)) 0.0)) (or $x69 (<= S_5 (+ A_2 ?x310 ?x645 ?x1480))) (<= S_5 (+ A_5 ?x310)) (or $x981 $x14339) (or $x409 $x14339 (>= S_5 (+ A_3 ?x310 C))) (<= S_5 (+ A_3 ?x310 ?x1247)) (or $x562 $x13939 (<= (+ A_4 ?x596 ?x288) B)) (or $x409 $x562 $x13939) (<= S_4 (+ A_3 ?x310 C)) (or $x909 (not $x409) $x14339) (<= S_5 (+ A_5 (* (- 1.0) A_4) A_3 ?x310 C B)) (or $x562 $x909 $x13939 $x14205) (<= S_3 (+ A_2 ?x570 C)) (<= S_5 (+ A_4 ?x310 C)) (or $x59 (<= S_5 (+ A_1 ?x570 ?x645 (* 4.0 C)))) (<= S_2 (+ A_2 ?x570)) (<= S_4 (+ A_2 ?x570 ?x1247)) (<= S_5 (+ A_2 ?x570 ?x1480)) (or $x3578 $x14295 (>= S_4 (+ A_2 ?x570 C))) (or $x498 $x4533 $x14295 (>= S_5 (+ A_2 ?x570 ?x1247)) (not $x14533)) (or $x13751 $x14295 $x14533 (>= S_5 (+ A_2 ?x570 ?x1247))) (or (>= S_3 (+ A_2 ?x570)) $x14295) (<= S_5 (+ A_5 (* (- 1.0) A_4) A_1 ?x570 ?x1480)) (<= S_5 (+ A_5 (* (- 1.0) A_4) A_2 ?x570 ?x1247 B)) (<= S_3 ?x914) (or $x1658 $x4533 $x14205 (>= S_5 (+ A_3 ?x570 C)) $x14551) (or $x1658 $x3578 $x13810 $x14205) (<= S_4 (+ A_4 ?x596 A_1 ?x570 ?x1247)) (<= S_5 (+ A_4 ?x596 A_1 ?x570 ?x1480)) $x24359 (<= S_4 ?x14715) (<= S_5 (+ A_4 ?x596 A_2 ?x570 ?x1247 B)) (or $x14243 $x14295 $x14533 (>= S_5 ?x14715)) $x14749 $x14762 (or $x954 (<= (+ C S_1 (* (- 1.0) S_3)) 0.0)) (<= (+ (* (- 3.0) C) S_2 (* (- 1.0) S_0)) 0.0) (<= (+ (* (- 2.0) C) S_2 (* (- 1.0) S_1)) 0.0) (<= (+ (* (- 4.0) C) S_3 (* (- 1.0) S_0)) 0.0) (<= (+ (* (- 3.0) C) (* (- 1.0) S_1) S_3) 0.0) (<= (+ (* (- 2.0) C) (* (- 1.0) S_2) S_3) 0.0) (<= (+ (* (- 2.0) C) S_1 (* (- 1.0) S_0)) 0.0) (<= (+ (* (- 4.0) C) (* (- 1.0) S_2) S_5) 0.0) (<= (+ (* (- 4.0) C) (* (- 1.0) S_1) S_4) 0.0) (<= (+ (* (- 5.0) C) S_4 (* (- 1.0) S_0)) 0.0) (<= (+ (* (- 3.0) C) (* (- 1.0) S_2) S_4) 0.0) (or $x909 $x13751 (<= (+ C (* (- 1.0) S_5) S_3) 0.0)) $x23884 $x23556 (<= (+ (* (- 2.0) C) S_4 (* (- 1.0) S_3)) 0.0) (or $x498 $x909 $x13751 $x14284) (or $x909 $x981 $x14205 $x14284) (<= (+ (* (- 3.0) C) S_5 (* (- 1.0) S_3)) 0.0) (<= (+ (* (- 6.0) C) S_5 (* (- 1.0) S_0)) 0.0) (<= (+ (* (- 5.0) C) (* (- 1.0) S_1) S_5) 0.0) $x869 $x643 $x42 (<= (+ (* (- 2.0) C) S_5 (* (- 1.0) S_4)) 0.0))))))))))))))))))))))))))))))))))))))))))))))))))))))))))))))
(check-sat)
